WARNING: for repeatability, setting FPU to use double precision
============================[ Problem Statistics ]=============================
|                                                                             |
|  Number of variables:           286                                         |
|  Number of clauses:            1742                                         |
|  Parse time:                   0.01 s                                       |
|                                                                             |
============================[ Search Statistics ]==============================
| Conflicts |          ORIGINAL         |          LEARNT          | Progress |
|           |    Vars  Clauses Literals |    Limit  Clauses Lit/Cl |          |
===============================================================================
|       100 |     286     1742     3718 |      638      100     34 |  0.001 % |
|       250 |     286     1742     3718 |      702      250     33 |  0.016 % |
|       475 |     286     1742     3718 |      772      475     36 |  0.001 % |
|       812 |     286     1742     3718 |      850      812     40 |  0.001 % |
|      1318 |     286     1742     3718 |      935      851     42 |  0.001 % |
|      2077 |     286     1742     3718 |     1028      624     41 |  0.001 % |
|      3216 |     286     1742     3718 |     1131      670     42 |  0.001 % |
|      4924 |     286     1742     3718 |     1244     1196     46 |  0.001 % |
|      7486 |     286     1742     3718 |     1369     1189     47 |  0.001 % |
|     11330 |     286     1742     3718 |     1506      780     47 |  0.001 % |
|     17096 |     286     1742     3718 |     1656     1066     48 |  0.001 % |
|     25745 |     286     1742     3718 |     1822     1183     44 |  0.001 % |
|     38719 |     286     1742     3718 |     2004     1017     45 |  0.001 % |
|     58180 |     286     1742     3718 |     2205     1937     41 |  0.016 % |
|     87372 |     286     1742     3718 |     2425     1668     38 |  0.001 % |
|    131161 |     286     1742     3718 |     2668     1985     50 |  0.001 % |
|    196845 |     286     1742     3718 |     2934     2146     45 |  0.001 % |
|    295371 |     286     1742     3718 |     3228     1682     46 |  0.001 % |
|    443160 |     286     1742     3718 |     3551     1699     45 |  0.001 % |
|    664843 |     286     1742     3718 |     3906     2569     45 |  0.001 % |
|    997368 |     286     1742     3718 |     4297     3647     46 |  0.001 % |
|   1496156 |     286     1742     3718 |     4726     2984     48 |  0.001 % |
|   2244338 |     286     1742     3718 |     5199     3749     47 |  0.001 % |
|   3366612 |     286     1742     3718 |     5719     2729     48 |  0.001 % |
|   5050023 |     286     1742     3718 |     6291     2992     45 |  0.001 % |
|   7575139 |     286     1742     3718 |     6920     5137     44 |  0.001 % |
|  11362814 |     286     1742     3718 |     7612     5424     44 |  0.001 % |
===============================================================================
restarts              : 18428
conflicts             : 12442793       (41580 /sec)
decisions             : 15072136       (0.00 % random) (50366 /sec)
propagations          : 186153791      (622068 /sec)
conflict literals     : 572510472      (8.56 % deleted)
Memory used           : 28.00 MB
CPU time              : 299.25 s

INDETERMINATE
